check/instances/MINLP/circle.lp
\ SCIP STATISTICS
\   Problem name     : circle
\   Variables        : 3 (0 binary, 0 integer, 0 implicit integer, 3 continuous)
\   Constraints      : 10
\   Obj. scale       : 1
\   Obj. offset      : 0
Minimize
 Obj: +1 r
Subject to
 e(p1): -5.091448376 a -19.966117286 b + [ +1 a^2 +1 b^2 -1 r^2 ] <= -106.142171510945
 e(p2): -17.178800744 a -12.417200804 b + [ +1 a^2 +1 b^2 -1 r^2 ] <= -112.324517702228
 e(p3): -11.906756408 a -19.840394702 b + [ +1 a^2 +1 b^2 -1 r^2 ] <= -133.85302752265
 e(p4): -7.420482272 a -15.720508406 b + [ +1 a^2 +1 b^2 -1 r^2 ] <= -75.5494854230458
 e(p5): -7.259818106 a -4.352464694 b + [ +1 a^2 +1 b^2 -1 r^2 ] <= -17.9122269611805
 e(p6): -6.032951606 a -13.514937662 b + [ +1 a^2 +1 b^2 -1 r^2 ] <= -54.762511272021
 e(p7): -8.296949072 a -4.871321552 b + [ +1 a^2 +1 b^2 -1 r^2 ] <= -23.1422843915853
 e(p8): -17.412866246 a -6.501449594 b + [ +1 a^2 +1 b^2 -1 r^2 ] <= -86.3691894311022
 e(p9): -3.208047014 a -14.040714962 b + [ +1 a^2 +1 b^2 -1 r^2 ] <= -51.8583105720412
 e(p10): -11.003792042 a -9.836414858 b + [ +1 a^2 +1 b^2 -1 r^2 ] <= -54.4596241405664
Bounds
 a free
 b free
End
